(set-logic QF_SLIA)
(set-option :produce-models true)
(declare-fun x () String)
(assert (str.in_re x (re.+ (re.union (re.range "7" "8") (str.to_re "34")))))
(assert (= (mod (mod (str.to_int x) 204) 62) 32))
(assert (> (str.len x) 100))
(check-sat)
(get-model)